50
21004

689 137
559 972
556 555
460 886
583 806
294 692
675 191
766 294
617 572
576 931
311 32
142 95
567 57
993 188
544 174
37 584
440 180
769 326
737 463
150 788
343 143
951 407
668 748
863 16
927 133
685 404
156 72
927 316
440 151
116 167
808 651
217 119
152 593
429 523
151 712
149 187
650 837
408 877
234 370
669 132
843 232
314 78
845 79
912 292
306 817
358 863
439 307
452 956
330 904
465 588
